data;

param n := 3;
param m := 5;

param t (tr): 
	1	2	3 :=
1	1.5	3.5	4
2	1.8	2	3
3	2	1	2.5
4	2.5	1.5	3.5
5	3.5	3.5	4.2
;

param:	p	q :=
1	56	4
2	86	3
3	45	3
4	42	5
5	65	8
;

param T_min := 8;
param T_max := 10;

